
--- Job problem_5.gms Start 12/23/21 10:25:15 37.1.0 r07954d5 WEX-WEI x86 64bit/MS Windows
--- Applying:
    C:\GAMS\37\gmsprmNT.txt
--- GAMS Parameters defined
    Input "C:\Users\semih\Desktop\GAMS CALISMA\ILKLER\4_Burak\Benim_cozumlerim\problem_5.gms"
    PageSize 0
    ScrDir "C:\Users\semih\Desktop\GAMS CALISMA\ILKLER\4_Burak\Benim_cozumlerim\225a\"
    SysDir C:\GAMS\37\
    LogOption 3
    ErrMsg 1
    ErrorLog 99
    IDE 1
    LstTitleLeftAligned 1
Licensee: GAMS Community License for Mehmet Semih BabacanG210511|0002AO-GEN
          Yildiz Technical University                                CL1316
          C:\Users\semih\Documents\GAMS\gamslice.txt
          Mehmet Semih Babacan, l6918040@std.yildiz.edu.tr                 
          Community license for demonstration and instructional purposes only
Processor information: 1 socket(s), 4 core(s), and 8 thread(s) available
GAMS 37.1.0   Copyright (C) 1987-2021 GAMS Development. All rights reserved
--- Starting compilation
--- problem_5.gms(95) 3 Mb
--- Starting execution: elapsed 0:00:00.010
--- problem_5.gms(47) 4 Mb
--- Generating MIP model my_model
--- problem_5.gms(88) 4 Mb
---   41 rows  43 columns  221 non-zeroes
---   36 discrete-columns
--- Executing CPLEX (Solvelink=2): elapsed 0:00:00.017

IBM ILOG CPLEX   37.1.0 r07954d5 Released Nov 11, 2021 WEI x86 64bit/MS Window

--- *** This solver runs with a community license. No commercial use.
--- GMO setup time: 0.00s
--- GMO memory 0.51 Mb (peak 0.51 Mb)
--- Dictionary memory 0.00 Mb
--- Cplex 20.1.0.1 link memory 0.00 Mb (peak 0.01 Mb)
--- Starting Cplex

Version identifier: 20.1.0.1 | 2021-04-07 | 3a818710c
CPXPARAM_Advance                                 0
CPXPARAM_Threads                                 1
CPXPARAM_MIP_Display                             4
CPXPARAM_MIP_Pool_Capacity                       0
CPXPARAM_MIP_Tolerances_AbsMIPGap                0
Generic callback                                 0x50
Tried aggregator 1 time.
MIP Presolve eliminated 8 rows and 8 columns.
MIP Presolve modified 10 coefficients.
Reduced MIP has 32 rows, 35 columns, and 120 nonzeros.
Reduced MIP has 30 binaries, 0 generals, 0 SOSs, and 0 indicators.
Presolve time = 0.00 sec. (0.08 ticks)
Probing time = 0.00 sec. (0.03 ticks)
Tried aggregator 1 time.
Detecting symmetries...
Reduced MIP has 32 rows, 35 columns, and 120 nonzeros.
Reduced MIP has 30 binaries, 0 generals, 0 SOSs, and 0 indicators.
Presolve time = 0.00 sec. (0.08 ticks)
Probing time = 0.00 sec. (0.03 ticks)
Clique table members: 22.
MIP emphasis: balance optimality and feasibility.
MIP search method: dynamic search.
Parallel mode: none, using 1 thread.
Tried aggregator 1 time.
No LP presolve or aggregator reductions.
Presolve time = 0.00 sec. (0.02 ticks)
Initializing dual steep norms . . .

Iteration log . . .
Iteration:     1   Dual objective     =           337.000000
Root relaxation solution time = 0.00 sec. (0.05 ticks)

        Nodes                                         Cuts/
   Node  Left     Objective  IInf  Best Integer    Best Bound    ItCnt     Gap

      0     0     2276.0000     8                   2276.0000       14         
      0     0     2448.0000     8                    Cuts: 10       22         
      0     0     2448.0000     8                     Cuts: 6       26         
      0     0     2454.5000    10                     Cuts: 6       34         
      0     0     2487.0000    12                     Cuts: 7       40         
*     0+    0                         2487.0000     2487.0000             0.00%
Found incumbent of value 2487.000000 after 0.00 sec. (1.20 ticks)
      0     0        cutoff           2487.0000     2487.0000       40    0.00%
Elapsed time = 0.00 sec. (1.20 ticks, tree = 0.01 MB)

Clique cuts applied:  2
Cover cuts applied:  1
Implied bound cuts applied:  1
Mixed integer rounding cuts applied:  1
Zero-half cuts applied:  1

Root node processing (before b&c):
  Real time             =    0.00 sec. (1.20 ticks)
Sequential b&c:
  Real time             =    0.00 sec. (0.00 ticks)
                          ------------
Total (root+branch&cut) =    0.00 sec. (1.20 ticks)

--- MIP status (101): integer optimal solution.
--- Cplex Time: 0.00sec (det. 1.20 ticks)

--- Fixing integer variables and solving final LP...

Version identifier: 20.1.0.1 | 2021-04-07 | 3a818710c
CPXPARAM_Advance                                 2
CPXPARAM_Threads                                 1
CPXPARAM_MIP_Display                             4
CPXPARAM_MIP_Pool_Capacity                       0
CPXPARAM_MIP_Tolerances_AbsMIPGap                0
Tried aggregator 1 time.
LP Presolve eliminated 20 rows and 38 columns.
Reduced LP has 20 rows, 5 columns, and 40 nonzeros.
Presolve time = 0.00 sec. (0.03 ticks)

Iteration log . . .
Iteration:     1   Dual objective     =          2487.000000

--- Fixed MIP status (1): optimal.
--- Cplex Time: 0.00sec (det. 0.06 ticks)


Proven optimal solution
MIP Solution:         2487.000000    (40 iterations, 0 nodes)
Final Solve:          2487.000000    (4 iterations)

Best possible:        2487.000000
Absolute gap:            0.000000
Relative gap:            0.000000

--- Reading solution for model my_model
--- Executing after solve: elapsed 0:00:00.067
--- Generating MIP model my_model
--- problem_5.gms(89) 4 Mb
---   41 rows  43 columns  221 non-zeroes
---   36 discrete-columns
--- Executing CPLEX (Solvelink=2): elapsed 0:00:00.073

IBM ILOG CPLEX   37.1.0 r07954d5 Released Nov 11, 2021 WEI x86 64bit/MS Window

--- *** This solver runs with a community license. No commercial use.
--- GMO setup time: 0.00s
--- GMO memory 0.51 Mb (peak 0.51 Mb)
--- Dictionary memory 0.00 Mb
--- Cplex 20.1.0.1 link memory 0.00 Mb (peak 0.01 Mb)
--- Starting Cplex

Version identifier: 20.1.0.1 | 2021-04-07 | 3a818710c
CPXPARAM_Advance                                 0
CPXPARAM_Threads                                 1
CPXPARAM_MIP_Display                             4
CPXPARAM_MIP_Pool_Capacity                       0
CPXPARAM_MIP_Tolerances_AbsMIPGap                0
Generic callback                                 0x50
Tried aggregator 1 time.
MIP Presolve eliminated 8 rows and 8 columns.
MIP Presolve modified 10 coefficients.
Reduced MIP has 32 rows, 35 columns, and 120 nonzeros.
Reduced MIP has 30 binaries, 0 generals, 0 SOSs, and 0 indicators.
Presolve time = 0.00 sec. (0.08 ticks)
Probing time = 0.00 sec. (0.03 ticks)
Tried aggregator 1 time.
Detecting symmetries...
Reduced MIP has 32 rows, 35 columns, and 120 nonzeros.
Reduced MIP has 30 binaries, 0 generals, 0 SOSs, and 0 indicators.
Presolve time = 0.00 sec. (0.08 ticks)
Probing time = 0.00 sec. (0.03 ticks)
Clique table members: 22.
MIP emphasis: balance optimality and feasibility.
MIP search method: dynamic search.
Parallel mode: none, using 1 thread.
Tried aggregator 1 time.
No LP presolve or aggregator reductions.
Presolve time = 0.00 sec. (0.02 ticks)
Initializing dual steep norms . . .

Iteration log . . .
Iteration:     1   Dual objective     =           635.000000
Root relaxation solution time = 0.00 sec. (0.06 ticks)

        Nodes                                         Cuts/
   Node  Left     Objective  IInf  Best Integer    Best Bound    ItCnt     Gap

      0     0     1908.3333    12                   1908.3333       18         
      0     0     2019.0000    12                     Cuts: 8       25         
*     0     0      integral     0     2019.0000       Cuts: 6       34    0.00%
Found incumbent of value 2019.000000 after 0.00 sec. (1.00 ticks)
      0     0        cutoff           2019.0000     2019.0000       34    0.00%
Elapsed time = 0.00 sec. (1.00 ticks, tree = 0.01 MB)

Clique cuts applied:  2
Implied bound cuts applied:  1
Mixed integer rounding cuts applied:  1
Gomory fractional cuts applied:  1

Root node processing (before b&c):
  Real time             =    0.00 sec. (1.00 ticks)
Sequential b&c:
  Real time             =    0.00 sec. (0.00 ticks)
                          ------------
Total (root+branch&cut) =    0.00 sec. (1.00 ticks)

--- MIP status (101): integer optimal solution.
--- Cplex Time: 0.00sec (det. 1.00 ticks)

--- Fixing integer variables and solving final LP...

Version identifier: 20.1.0.1 | 2021-04-07 | 3a818710c
CPXPARAM_Advance                                 2
CPXPARAM_Threads                                 1
CPXPARAM_MIP_Display                             4
CPXPARAM_MIP_Pool_Capacity                       0
CPXPARAM_MIP_Tolerances_AbsMIPGap                0
Tried aggregator 1 time.
LP Presolve eliminated 20 rows and 38 columns.
Reduced LP has 20 rows, 5 columns, and 40 nonzeros.
Presolve time = 0.00 sec. (0.03 ticks)

Iteration log . . .
Iteration:     1   Dual objective     =          2019.000000

--- Fixed MIP status (1): optimal.
--- Cplex Time: 0.00sec (det. 0.06 ticks)


Proven optimal solution
MIP Solution:         2019.000000    (34 iterations, 0 nodes)
Final Solve:          2019.000000    (4 iterations)

Best possible:        2019.000000
Absolute gap:            0.000000
Relative gap:            0.000000

--- Reading solution for model my_model
--- Executing after solve: elapsed 0:00:00.106
--- problem_5.gms(92) 4 Mb
*** Status: Normal completion
--- Job problem_5.gms Stop 12/23/21 10:25:15 elapsed 0:00:00.109
